experiment/data/hgs-res/Vrp-Set-X-n181/Vrp-Set-X-n181-hgs/0.hgs1.vrp
NAME : 0
COMMENT : CVRP Instance
TYPE : CVRP
DIMENSION : 181
EDGE_WEIGHT_TYPE : EUC_2D
CAPACITY : 8
NODE_COORD_SECTION
1	894.0	510.0
2	463.0	887.0
3	704.0	177.0
4	424.0	368.0
5	420.0	800.0
6	492.0	610.0
7	607.0	749.0
8	455.0	819.0
9	343.0	457.0
10	387.0	275.0
11	466.0	653.0
12	607.0	348.0
13	428.0	546.0
14	764.0	848.0
15	403.0	298.0
16	315.0	738.0
17	457.0	902.0
18	597.0	584.0
19	219.0	552.0
20	526.0	359.0
21	414.0	340.0
22	398.0	401.0
23	579.0	780.0
24	518.0	563.0
25	531.0	597.0
26	501.0	827.0
27	687.0	200.0
28	670.0	234.0
29	488.0	981.0
30	673.0	222.0
31	359.0	256.0
32	537.0	675.0
33	788.0	95.0
34	433.0	820.0
35	397.0	770.0
36	444.0	799.0
37	367.0	288.0
38	253.0	774.0
39	570.0	853.0
40	379.0	843.0
41	388.0	736.0
42	565.0	785.0
43	608.0	193.0
44	430.0	657.0
45	775.0	142.0
46	721.0	600.0
47	434.0	876.0
48	683.0	311.0
49	592.0	740.0
50	500.0	315.0
51	428.0	915.0
52	710.0	258.0
53	709.0	272.0
54	426.0	803.0
55	409.0	639.0
56	535.0	572.0
57	502.0	916.0
58	528.0	728.0
59	351.0	371.0
60	657.0	782.0
61	493.0	265.0
62	751.0	112.0
63	469.0	594.0
64	720.0	165.0
65	463.0	624.0
66	751.0	96.0
67	496.0	833.0
68	565.0	459.0
69	471.0	361.0
70	448.0	969.0
71	361.0	559.0
72	529.0	582.0
73	515.0	809.0
74	497.0	434.0
75	429.0	879.0
76	483.0	715.0
77	264.0	574.0
78	793.0	916.0
79	448.0	386.0
80	325.0	199.0
81	327.0	370.0
82	484.0	861.0
83	432.0	873.0
84	412.0	853.0
85	641.0	155.0
86	712.0	163.0
87	456.0	612.0
88	301.0	921.0
89	480.0	400.0
90	700.0	165.0
91	690.0	213.0
92	478.0	811.0
93	665.0	56.0
94	430.0	368.0
95	414.0	943.0
96	709.0	235.0
97	296.0	297.0
98	380.0	773.0
99	459.0	423.0
100	498.0	910.0
101	464.0	939.0
102	677.0	704.0
103	420.0	381.0
104	398.0	872.0
105	554.0	512.0
106	486.0	614.0
107	584.0	809.0
108	429.0	336.0
109	461.0	529.0
110	470.0	360.0
111	494.0	769.0
112	407.0	661.0
113	687.0	711.0
114	454.0	745.0
115	593.0	471.0
116	537.0	648.0
117	666.0	111.0
118	452.0	797.0
119	430.0	742.0
120	481.0	958.0
121	636.0	741.0
122	405.0	576.0
123	666.0	234.0
124	603.0	683.0
125	473.0	466.0
126	378.0	867.0
127	611.0	739.0
128	342.0	688.0
129	446.0	280.0
130	585.0	888.0
131	496.0	418.0
132	711.0	27.0
133	791.0	198.0
134	660.0	828.0
135	414.0	839.0
136	504.0	592.0
137	665.0	921.0
138	448.0	320.0
139	550.0	637.0
140	637.0	758.0
141	743.0	166.0
142	504.0	869.0
143	708.0	432.0
144	664.0	343.0
145	499.0	493.0
146	878.0	706.0
147	396.0	920.0
148	275.0	924.0
149	727.0	669.0
150	728.0	203.0
151	367.0	739.0
152	444.0	808.0
153	755.0	303.0
154	445.0	864.0
155	561.0	848.0
156	597.0	660.0
157	386.0	700.0
158	652.0	240.0
159	344.0	301.0
160	209.0	369.0
161	571.0	812.0
162	454.0	353.0
163	497.0	781.0
164	697.0	220.0
165	296.0	787.0
166	517.0	506.0
167	409.0	893.0
168	339.0	886.0
169	518.0	788.0
170	719.0	99.0
171	607.0	654.0
172	218.0	312.0
173	533.0	847.0
174	523.0	938.0
175	598.0	705.0
176	481.0	772.0
177	461.0	431.0
178	375.0	722.0
179	460.0	681.0
180	524.0	610.0
181	771.0	752.0
DEMAND_SECTION
1	0
2	1
3	1
4	1
5	1
6	1
7	1
8	1
9	1
10	1
11	1
12	1
13	1
14	1
15	1
16	1
17	1
18	1
19	1
20	1
21	1
22	1
23	1
24	1
25	1
26	1
27	1
28	1
29	1
30	1
31	1
32	1
33	1
34	1
35	1
36	1
37	1
38	1
39	1
40	1
41	1
42	1
43	1
44	1
45	1
46	1
47	1
48	1
49	1
50	1
51	1
52	1
53	1
54	1
55	1
56	1
57	1
58	1
59	1
60	1
61	1
62	1
63	1
64	1
65	1
66	1
67	1
68	1
69	1
70	1
71	1
72	1
73	1
74	1
75	1
76	1
77	1
78	1
79	1
80	1
81	1
82	1
83	1
84	1
85	1
86	1
87	1
88	1
89	1
90	1
91	1
92	1
93	1
94	1
95	1
96	1
97	1
98	1
99	1
100	1
101	1
102	1
103	1
104	1
105	1
106	1
107	1
108	1
109	1
110	1
111	1
112	1
113	1
114	1
115	1
116	1
117	1
118	1
119	1
120	1
121	1
122	1
123	1
124	1
125	1
126	1
127	1
128	1
129	1
130	1
131	1
132	1
133	1
134	1
135	1
136	1
137	1
138	1
139	1
140	1
141	1
142	1
143	1
144	1
145	1
146	1
147	1
148	1
149	1
150	1
151	1
152	1
153	1
154	1
155	1
156	1
157	1
158	1
159	1
160	1
161	1
162	1
163	1
164	1
165	1
166	1
167	1
168	1
169	1
170	1
171	1
172	1
173	1
174	1
175	1
176	1
177	1
178	1
179	1
180	1
181	1
DEPOT_SECTION
1
-1
EOF
