experiment/data/hgs-res/Vrp-Set-X-n181/Vrp-Set-X-n181-hgs/0.hgs1.tour
Route #1: 104 165 144 124 73 130 67 114
Route #2: 58 80 96 171 159 18 76 8
Route #3: 88 78 93 3 102 21 98 176
Route #4: 49 137 107 20 161 109 68 19
Route #5: 60 128 9 30 79 158 36 14
Route #6: 143 47 157 122 27 29 51 52
Route #7: 142 11 42 84 26 90 163 95
Route #8: 152 149 2 89 85 63 140 132
Route #9: 44 32 65 61 169 131 92 116
Route #10: 145 180 148 45
Route #11: 59 106 154 38 129 136 77 13
Route #12: 133 173 119 28 69 100 56 99
Route #13: 72 25 66 81 141 172 160 139
Route #14: 46 74 166 146 94 50 16 1
Route #15: 112 101 120 126 6 48 174 123
Route #16: 91 7 134 83 125 103 82 153
Route #17: 22 41 168 162 175 110 57 31
Route #18: 117 35 151 33 53 4 113 75
Route #19: 39 167 87 147 37 164 15 127
Route #20: 178 156 177 40 150 97 34 118
Route #21: 17 71 24 179 115 138 155 170
Route #22: 55 135 5 105 64 86 62 23
Route #23: 108 12 121 70 54 111 43 10
Cost 25575.7
